<number of tasks>
28

<cycle time>
256

<task times>
1 70
2 59
3 33
4 6
5 1
6 27
7 17
8 62
9 31
10 53
11 21
12 19
13 108
14 52
15 5
16 8
17 97
18 8
19 47
20 67
21 17
22 8
23 3
24 21
25 107
26 3
27 2
28 72

<precedence relations>
1,2
1,3
1,4
1,5
1,8
1,19
1,21
1,22
1,23
1,24
1,26
2,6
2,17
3,28
4,28
5,28
6,7
7,18
8,9
9,10
10,11
10,12
11,15
12,13
13,14
13,16
14,28
15,28
16,28
17,28
18,28
19,20
20,28
21,28
22,28
23,28
24,25
25,28
26,27
27,28

<setup times forward>
1,3:7
1,4:7
1,5:3
1,19:3
1,21:3
1,23:3
2,3:7
2,4:7
2,5:3
2,6:7
2,10:7
2,11:7
2,12:7
2,13:3
2,14:3
2,15:3
2,16:3
2,17:7
2,19:3
2,20:3
2,21:3
2,23:3
2,25:3
3,2:7
3,5:4
3,7:10
3,8:7
3,9:7
3,13:10
3,14:4
3,15:4
3,16:4
3,18:4
3,19:10
3,20:10
3,21:10
3,22:7
3,23:4
3,24:7
3,25:4
3,26:7
3,27:7
3,28:4
4,2:7
4,5:4
4,7:10
4,8:7
4,9:7
4,13:10
4,14:4
4,15:4
4,16:4
4,18:4
4,19:10
4,20:10
4,21:10
4,22:7
4,23:4
4,24:7
4,25:4
4,26:7
4,27:7
4,28:4
5,2:3
5,3:4
5,4:4
5,6:4
5,7:6
5,8:3
5,9:3
5,10:4
5,11:4
5,12:4
5,13:6
5,17:4
5,19:6
5,20:6
5,21:6
5,22:3
5,24:3
5,26:3
5,27:3
6,5:4
6,7:10
6,8:7
6,9:7
6,13:10
6,14:4
6,15:4
6,16:4
6,19:10
6,20:10
6,21:10
6,22:7
6,23:4
6,24:7
6,25:4
6,26:7
6,27:7
7,3:10
7,4:10
7,5:6
7,8:3
7,9:3
7,10:10
7,11:10
7,12:10
7,14:6
7,15:6
7,16:6
7,17:10
7,18:6
7,22:3
7,23:6
7,24:3
7,25:6
7,26:3
7,27:3
8,3:7
8,4:7
8,5:3
8,6:7
8,7:3
8,17:7
8,18:3
8,19:3
8,20:3
8,21:3
8,23:3
8,25:3
9,3:7
9,4:7
9,5:3
9,6:7
9,7:3
9,10:7
9,17:7
9,18:3
9,19:3
9,20:3
9,21:3
9,23:3
9,25:3
10,2:7
10,5:4
10,7:10
10,18:4
10,19:10
10,20:10
10,21:10
10,22:7
10,23:4
10,24:7
10,25:4
10,26:7
10,27:7
11,2:7
11,5:4
11,7:10
11,13:10
11,14:4
11,15:4
11,16:4
11,18:4
11,19:10
11,20:10
11,21:10
11,22:7
11,23:4
11,24:7
11,25:4
11,26:7
11,27:7
12,2:7
12,5:4
12,7:10
12,13:10
12,15:4
12,18:4
12,19:10
12,20:10
12,21:10
12,22:7
12,23:4
12,24:7
12,25:4
12,26:7
12,27:7
13,2:3
13,3:10
13,4:10
13,5:6
13,6:10
13,11:10
13,14:6
13,15:6
13,16:6
13,17:10
13,18:6
13,22:3
13,23:6
13,24:3
13,25:6
13,26:3
13,27:3
14,2:3
14,3:4
14,4:4
14,6:4
14,7:6
14,11:4
14,17:4
14,19:6
14,20:6
14,21:6
14,22:3
14,24:3
14,26:3
14,27:3
15,2:3
15,3:4
15,4:4
15,6:4
15,7:6
15,12:4
15,13:6
15,17:4
15,19:6
15,20:6
15,21:6
15,22:3
15,24:3
15,26:3
15,27:3
16,2:3
16,3:4
16,4:4
16,6:4
16,7:6
16,11:4
16,17:4
16,19:6
16,20:6
16,21:6
16,22:3
16,24:3
16,26:3
16,27:3
17,5:4
17,7:10
17,8:7
17,9:7
17,13:10
17,14:4
17,15:4
17,16:4
17,18:4
17,19:10
17,20:10
17,21:10
17,22:7
17,23:4
17,24:7
17,25:4
17,26:7
17,27:7
17,28:4
18,3:4
18,4:4
18,8:3
18,9:3
18,10:4
18,11:4
18,12:4
18,13:6
18,17:4
18,19:6
18,20:6
18,21:6
18,22:3
18,24:3
18,26:3
18,27:3
19,2:3
19,3:10
19,4:10
19,5:6
19,6:10
19,8:3
19,9:3
19,10:10
19,11:10
19,12:10
19,14:6
19,15:6
19,16:6
19,17:10
19,18:6
19,22:3
19,23:6
19,24:3
19,25:6
19,26:3
19,27:3
20,2:3
20,3:10
20,4:10
20,5:6
20,6:10
20,8:3
20,9:3
20,10:10
20,11:10
20,12:10
20,14:6
20,15:6
20,16:6
20,17:10
20,18:6
20,22:3
20,23:6
20,24:3
20,25:6
20,26:3
20,27:3
20,28:6
21,2:3
21,3:10
21,4:10
21,5:6
21,6:10
21,8:3
21,9:3
21,10:10
21,11:10
21,12:10
21,14:6
21,15:6
21,16:6
21,17:10
21,18:6
21,22:3
21,23:6
21,24:3
21,25:6
21,26:3
21,27:3
21,28:6
22,3:7
22,4:7
22,5:3
22,6:7
22,7:3
22,10:7
22,11:7
22,12:7
22,13:3
22,14:3
22,15:3
22,16:3
22,17:7
22,18:3
22,19:3
22,20:3
22,21:3
22,23:3
22,25:3
22,28:3
23,2:3
23,3:4
23,4:4
23,6:4
23,7:6
23,8:3
23,9:3
23,10:4
23,11:4
23,12:4
23,13:6
23,17:4
23,19:6
23,20:6
23,21:6
23,22:3
23,24:3
23,26:3
23,27:3
24,3:7
24,4:7
24,5:3
24,6:7
24,7:3
24,10:7
24,11:7
24,12:7
24,13:3
24,14:3
24,15:3
24,16:3
24,17:7
24,18:3
24,19:3
24,20:3
24,21:3
24,23:3
24,25:3
25,2:3
25,3:4
25,4:4
25,6:4
25,7:6
25,8:3
25,9:3
25,10:4
25,11:4
25,12:4
25,13:6
25,17:4
25,19:6
25,20:6
25,21:6
25,22:3
25,26:3
25,27:3
26,3:7
26,4:7
26,5:3
26,6:7
26,7:3
26,10:7
26,11:7
26,12:7
26,13:3
26,14:3
26,15:3
26,16:3
26,17:7
26,18:3
26,19:3
26,20:3
26,21:3
26,23:3
26,25:3
27,3:7
27,4:7
27,5:3
27,6:7
27,7:3
27,10:7
27,11:7
27,12:7
27,13:3
27,14:3
27,15:3
27,16:3
27,17:7
27,18:3
27,19:3
27,20:3
27,21:3
27,23:3
27,25:3
27,28:3

<setup times backward>
2,13:3
2,19:3
2,20:3
2,21:3
3,1:7
3,2:7
3,5:4
3,7:10
3,8:7
3,9:7
3,13:10
3,14:4
3,15:4
3,16:4
3,18:4
3,19:10
3,20:10
3,21:10
3,22:7
3,23:4
3,24:7
3,25:4
3,26:7
3,27:7
4,1:7
4,2:7
4,5:4
4,7:10
4,8:7
4,9:7
4,13:10
4,14:4
4,15:4
4,16:4
4,18:4
4,19:10
4,20:10
4,21:10
4,22:7
4,23:4
4,24:7
4,25:4
4,26:7
4,27:7
5,1:3
5,2:3
5,7:6
5,8:3
5,9:3
5,13:6
5,19:6
5,20:6
5,21:6
5,22:3
5,24:3
5,26:3
5,27:3
6,1:7
6,2:7
6,5:4
6,8:7
6,9:7
6,13:10
6,14:4
6,15:4
6,16:4
6,19:10
6,20:10
6,21:10
6,22:7
6,23:4
6,24:7
6,25:4
6,26:7
6,27:7
8,7:3
8,19:3
8,20:3
8,21:3
9,7:3
9,19:3
9,20:3
9,21:3
10,1:7
10,2:7
10,5:4
10,7:10
10,8:7
10,9:7
10,18:4
10,19:10
10,20:10
10,21:10
10,22:7
10,23:4
10,24:7
10,25:4
10,26:7
10,27:7
11,1:7
11,2:7
11,5:4
11,7:10
11,8:7
11,9:7
11,13:10
11,14:4
11,16:4
11,18:4
11,19:10
11,20:10
11,21:10
11,22:7
11,23:4
11,24:7
11,25:4
11,26:7
11,27:7
12,1:7
12,2:7
12,5:4
12,7:10
12,8:7
12,9:7
12,15:4
12,18:4
12,19:10
12,20:10
12,21:10
12,22:7
12,23:4
12,24:7
12,25:4
12,26:7
12,27:7
14,1:3
14,2:3
14,7:6
14,8:3
14,9:3
14,13:6
14,19:6
14,20:6
14,21:6
14,22:3
14,24:3
14,26:3
14,27:3
15,1:3
15,2:3
15,7:6
15,8:3
15,9:3
15,13:6
15,19:6
15,20:6
15,21:6
15,22:3
15,24:3
15,26:3
15,27:3
16,1:3
16,2:3
16,7:6
16,8:3
16,9:3
16,13:6
16,19:6
16,20:6
16,21:6
16,22:3
16,24:3
16,26:3
16,27:3
17,1:7
17,2:7
17,5:4
17,7:10
17,8:7
17,9:7
17,13:10
17,14:4
17,15:4
17,16:4
17,18:4
17,19:10
17,20:10
17,21:10
17,22:7
17,23:4
17,24:7
17,25:4
17,26:7
17,27:7
18,1:3
18,2:3
18,7:6
18,8:3
18,9:3
18,13:6
18,19:6
18,20:6
18,21:6
18,22:3
18,24:3
18,26:3
18,27:3
22,7:3
22,13:3
22,19:3
22,20:3
22,21:3
23,1:3
23,2:3
23,7:6
23,8:3
23,9:3
23,13:6
23,19:6
23,20:6
23,21:6
23,22:3
23,24:3
23,26:3
23,27:3
24,7:3
24,13:3
24,19:3
24,20:3
24,21:3
25,1:3
25,2:3
25,7:6
25,8:3
25,9:3
25,13:6
25,19:6
25,20:6
25,21:6
25,22:3
25,24:3
25,26:3
25,27:3
26,7:3
26,13:3
26,19:3
26,20:3
26,21:3
27,7:3
27,13:3
27,19:3
27,20:3
27,21:3
28,1:3
28,2:3
28,7:6
28,8:3
28,9:3
28,13:6
28,19:6
28,20:6
28,21:6
28,22:3
28,24:3
28,26:3
28,27:3

<end>

<optimal SALBP-1 value>
4


<rand seed>
467321153

